%SETS
JOBS     = 1..10;
MACHINES = 1..10;
SPEED    = 5;

time        = array3d(JOBS,MACHINES,1..SPEED,[14, 4, 3, 2, 2, 29, 10, 7, 6, 5, 5, 2, 1, 1, 1, 54, 18, 13, 11, 9, 1, 1, 1, 1, 1, 28, 9, 7, 5, 5, 13, 4, 3, 2, 2, 21, 7, 5, 4, 3, 3, 1, 1, 1, 1, 5, 1, 1, 1, 1, 41, 14, 10, 8, 7, 89, 30, 21, 18, 16, 9, 3, 2, 1, 1, 30, 10, 7, 6, 5, 54, 18, 13, 11, 9, 58, 20, 14, 11, 10, 2, 1, 1, 1, 1, 1, 1, 1, 1, 1, 4, 1, 1, 1, 1, 54, 18, 13, 11, 9, 2, 1, 1, 1, 1, 14, 4, 3, 2, 2, 81, 28, 20, 16, 14, 19, 6, 4, 4, 3, 30, 10, 7, 6, 5, 9, 3, 2, 1, 1, 30, 10, 7, 6, 5, 46, 16, 11, 9, 8, 1, 1, 1, 1, 1, 35, 12, 8, 7, 6, 116, 40, 28, 23, 20, 35, 12, 8, 7, 6, 8, 2, 2, 1, 1, 40, 13, 9, 8, 7, 2, 1, 1, 1, 1, 15, 5, 3, 3, 2, 61, 21, 15, 12, 11, 8, 3, 2, 1, 1, 8, 3, 2, 1, 1, 3, 1, 1, 1, 1, 1, 1, 1, 1, 1, 29, 10, 7, 5, 5, 6, 2, 1, 1, 1, 7, 2, 1, 1, 1, 17, 6, 4, 3, 3, 1, 1, 1, 1, 1, 22, 7, 5, 4, 3, 4, 1, 1, 1, 1, 23, 7, 5, 4, 4, 31, 10, 7, 6, 5, 2, 1, 1, 1, 1, 13, 4, 3, 2, 2, 30, 10, 7, 6, 5, 13, 4, 3, 2, 2, 1, 1, 1, 1, 1, 19, 6, 4, 4, 3, 28, 9, 6, 5, 5, 18, 6, 4, 3, 3, 74, 25, 18, 15, 13, 22, 7, 5, 4, 4, 60, 20, 14, 12, 10, 3, 1, 1, 1, 1, 3, 1, 1, 1, 1, 42, 14, 10, 8, 7, 13, 4, 3, 2, 2, 4, 1, 1, 1, 1, 67, 23, 16, 13, 12, 11, 3, 2, 2, 1, 35, 12, 8, 7, 6, 33, 11, 8, 6, 6, 55, 19, 13, 11, 10, 25, 8, 6, 5, 4, 35, 12, 8, 7, 6, 11, 3, 2, 2, 1, 8, 2, 1, 1, 1, 58, 20, 14, 11, 10, 14, 4, 3, 2, 2, 86, 29, 21, 17, 15, 28, 9, 6, 5, 5, 25, 8, 6, 5, 4, 3, 1, 1, 1, 1, 77, 26, 18, 15, 13, 15, 5, 3, 3, 2, 22, 7, 5, 4, 4, 13, 4, 3, 2, 2, 7, 2, 1, 1, 1, 60, 20, 14, 12, 10, 22, 7, 5, 4, 3, 1, 1, 1, 1, 1, 24, 8, 6, 5, 4, 10, 3, 2, 2, 1, 19, 6, 4, 3, 3, 56, 19, 13, 11, 10, 11, 3, 2, 2, 2, 61, 21, 15, 12, 11, 25, 8, 6, 5, 4, 1, 1, 1, 1, 1, 68, 23, 16, 13, 12, 30, 10, 7, 6, 5, 153, 52, 37, 31, 27]);
energy      = array3d(JOBS,MACHINES,1..SPEED,[86, 96, 97, 98, 98, 74, 90, 93, 94, 95, 95, 98, 99, 99, 99, 58, 83, 87, 89, 91, 99, 99, 99, 99, 99, 75, 91, 93, 95, 95, 87, 96, 97, 98, 98, 81, 93, 95, 96, 97, 97, 99, 99, 99, 99, 95, 99, 99, 99, 99, 66, 86, 90, 92, 93, 41, 74, 81, 83, 85, 91, 97, 98, 99, 99, 74, 90, 93, 94, 95, 58, 83, 87, 89, 91, 55, 81, 86, 89, 90, 98, 99, 99, 99, 99, 99, 99, 99, 99, 99, 96, 99, 99, 99, 99, 58, 83, 87, 89, 91, 98, 99, 99, 99, 99, 86, 96, 97, 98, 98, 44, 75, 81, 85, 86, 82, 94, 96, 96, 97, 74, 90, 93, 94, 95, 91, 97, 98, 99, 99, 74, 90, 93, 94, 95, 63, 85, 89, 91, 92, 99, 99, 99, 99, 99, 70, 88, 92, 93, 94, 31, 67, 75, 79, 81, 70, 88, 92, 93, 94, 92, 98, 98, 99, 99, 67, 87, 91, 92, 93, 98, 99, 99, 99, 99, 86, 95, 97, 97, 98, 54, 81, 86, 88, 89, 92, 97, 98, 99, 99, 92, 97, 98, 99, 99, 97, 99, 99, 99, 99, 99, 99, 99, 99, 99, 74, 90, 93, 95, 95, 94, 98, 99, 99, 99, 93, 98, 99, 99, 99, 84, 94, 96, 97, 97, 99, 99, 99, 99, 99, 80, 93, 95, 96, 97, 96, 99, 99, 99, 99, 79, 93, 95, 96, 96, 73, 90, 93, 94, 95, 98, 99, 99, 99, 99, 87, 96, 97, 98, 98, 74, 90, 93, 94, 95, 87, 96, 97, 98, 98, 99, 99, 99, 99, 99, 82, 94, 96, 96, 97, 75, 91, 94, 95, 95, 83, 94, 96, 97, 97, 47, 77, 83, 86, 87, 80, 93, 95, 96, 96, 54, 81, 86, 88, 90, 97, 99, 99, 99, 99, 97, 99, 99, 99, 99, 65, 86, 90, 92, 93, 87, 96, 97, 98, 98, 96, 99, 99, 99, 99, 51, 79, 85, 87, 88, 89, 97, 98, 98, 99, 70, 88, 92, 93, 94, 71, 89, 92, 94, 94, 57, 82, 87, 89, 90, 77, 92, 94, 95, 96, 70, 88, 92, 93, 94, 89, 97, 98, 98, 99, 92, 98, 99, 99, 99, 55, 81, 86, 89, 90, 86, 96, 97, 98, 98, 42, 74, 81, 84, 86, 75, 91, 94, 95, 95, 77, 92, 94, 95, 96, 97, 99, 99, 99, 99, 46, 77, 83, 86, 87, 86, 95, 97, 97, 98, 80, 93, 95, 96, 96, 87, 96, 97, 98, 98, 93, 98, 99, 99, 99, 54, 81, 86, 88, 90, 80, 93, 95, 96, 97, 99, 99, 99, 99, 99, 78, 92, 94, 95, 96, 90, 97, 98, 98, 99, 82, 94, 96, 97, 97, 57, 82, 87, 89, 90, 89, 97, 98, 98, 98, 54, 81, 86, 88, 89, 77, 92, 94, 95, 96, 99, 99, 99, 99, 99, 50, 79, 85, 87, 88, 74, 90, 93, 94, 95, 21, 59, 69, 73, 76]);
precedence  = array2d(JOBS,MACHINES,[4, 3, 9, 1, 5, 7, 2, 8, 6, 0, 2, 6, 5, 9, 4, 8, 0, 1, 7, 3, 0, 7, 6, 9, 5, 4, 2, 1, 8, 3, 2, 4, 1, 8, 0, 7, 6, 5, 9, 3, 7, 3, 5, 0, 4, 2, 9, 6, 1, 8, 8, 4, 0, 1, 5, 3, 7, 6, 9, 2, 6, 3, 9, 7, 2, 5, 8, 0, 1, 4, 5, 0, 2, 6, 4, 1, 9, 8, 3, 7, 9, 3, 5, 6, 4, 1, 7, 2, 0, 8, 6, 5, 0, 8, 1, 2, 9, 4, 3, 7]);
releaseDate = array2d(JOBS,MACHINES,[118, 99, 138, 81, 121, 123, 96, 132, 122, 80, 22, 60, 58, 105, 45, 83, 20, 21, 82, 32, 80, 157, 135, 162, 122, 117, 99, 81, 161, 106, 5, 40, 3, 76, 0, 73, 56, 53, 87, 39, 53, 39, 51, 30, 47, 37, 71, 52, 31, 55, 81, 53, 30, 38, 59, 48, 66, 61, 82, 41, 79, 68, 135, 108, 62, 78, 119, 50, 52, 69, 114, 70, 92, 132, 113, 76, 163, 142, 107, 134, 139, 77, 100, 103, 97, 71, 111, 72, 70, 133, 157, 152, 80, 219, 96, 114, 221, 129, 121, 162]);
dueDate     = array2d(JOBS,MACHINES,[121, 118, 139, 96, 122, 132, 99, 138, 123, 81, 32, 82, 60, 114, 58, 105, 21, 22, 83, 45, 81, 161, 157, 169, 135, 122, 106, 99, 162, 117, 39, 53, 5, 87, 3, 76, 73, 56, 89, 40, 55, 47, 52, 31, 51, 39, 76, 53, 37, 71, 82, 59, 38, 41, 61, 53, 81, 66, 101, 48, 108, 69, 137, 119, 68, 79, 135, 52, 62, 78, 132, 76, 107, 134, 114, 92, 166, 163, 113, 142, 140, 97, 103, 111, 100, 72, 133, 77, 71, 139, 162, 157, 96, 221, 114, 121, 222, 152, 129, 219]);